; benchmark generated from python API
(set-info :status unknown)
(declare-fun cell_1_1 () Int)
(declare-fun cell_2_1 () Int)
(declare-fun cell_3_1 () Int)
(declare-fun cell_4_1 () Int)
(declare-fun cell_5_1 () Int)
(declare-fun cell_6_1 () Int)
(declare-fun cell_7_1 () Int)
(declare-fun cell_8_1 () Int)
(declare-fun cell_9_1 () Int)
(declare-fun cell_1_2 () Int)
(declare-fun cell_2_2 () Int)
(declare-fun cell_3_2 () Int)
(declare-fun cell_4_2 () Int)
(declare-fun cell_5_2 () Int)
(declare-fun cell_6_2 () Int)
(declare-fun cell_7_2 () Int)
(declare-fun cell_8_2 () Int)
(declare-fun cell_9_2 () Int)
(declare-fun cell_1_3 () Int)
(declare-fun cell_2_3 () Int)
(declare-fun cell_3_3 () Int)
(declare-fun cell_4_3 () Int)
(declare-fun cell_5_3 () Int)
(declare-fun cell_6_3 () Int)
(declare-fun cell_7_3 () Int)
(declare-fun cell_8_3 () Int)
(declare-fun cell_9_3 () Int)
(declare-fun cell_1_4 () Int)
(declare-fun cell_2_4 () Int)
(declare-fun cell_3_4 () Int)
(declare-fun cell_4_4 () Int)
(declare-fun cell_5_4 () Int)
(declare-fun cell_6_4 () Int)
(declare-fun cell_7_4 () Int)
(declare-fun cell_8_4 () Int)
(declare-fun cell_9_4 () Int)
(declare-fun cell_1_5 () Int)
(declare-fun cell_2_5 () Int)
(declare-fun cell_3_5 () Int)
(declare-fun cell_4_5 () Int)
(declare-fun cell_5_5 () Int)
(declare-fun cell_6_5 () Int)
(declare-fun cell_7_5 () Int)
(declare-fun cell_8_5 () Int)
(declare-fun cell_9_5 () Int)
(declare-fun cell_1_6 () Int)
(declare-fun cell_2_6 () Int)
(declare-fun cell_3_6 () Int)
(declare-fun cell_4_6 () Int)
(declare-fun cell_5_6 () Int)
(declare-fun cell_6_6 () Int)
(declare-fun cell_7_6 () Int)
(declare-fun cell_8_6 () Int)
(declare-fun cell_9_6 () Int)
(declare-fun cell_1_7 () Int)
(declare-fun cell_2_7 () Int)
(declare-fun cell_3_7 () Int)
(declare-fun cell_4_7 () Int)
(declare-fun cell_5_7 () Int)
(declare-fun cell_6_7 () Int)
(declare-fun cell_7_7 () Int)
(declare-fun cell_8_7 () Int)
(declare-fun cell_9_7 () Int)
(declare-fun cell_1_8 () Int)
(declare-fun cell_2_8 () Int)
(declare-fun cell_3_8 () Int)
(declare-fun cell_4_8 () Int)
(declare-fun cell_5_8 () Int)
(declare-fun cell_6_8 () Int)
(declare-fun cell_7_8 () Int)
(declare-fun cell_8_8 () Int)
(declare-fun cell_9_8 () Int)
(declare-fun cell_1_9 () Int)
(declare-fun cell_2_9 () Int)
(declare-fun cell_3_9 () Int)
(declare-fun cell_4_9 () Int)
(declare-fun cell_5_9 () Int)
(declare-fun cell_6_9 () Int)
(declare-fun cell_7_9 () Int)
(declare-fun cell_8_9 () Int)
(declare-fun cell_9_9 () Int)
(assert
 (let (($x353 (= cell_1_1 9)))
 (let (($x546 (= cell_1_1 8)))
 (let (($x69 (= cell_1_1 7)))
 (let (($x1414 (= cell_1_1 6)))
 (let (($x75 (= cell_1_1 5)))
 (let (($x451 (= cell_1_1 4)))
 (let (($x72 (= cell_1_1 3)))
 (let (($x63 (= cell_1_1 2)))
 (let (($x331 (= cell_1_1 1)))
 (or $x331 $x63 $x72 $x451 $x75 $x1414 $x69 $x546 $x353)))))))))))
(assert
 (let (($x1048 (= cell_2_1 9)))
 (let (($x232 (= cell_2_1 8)))
 (let (($x1251 (= cell_2_1 7)))
 (let (($x736 (= cell_2_1 6)))
 (let (($x23 (= cell_2_1 5)))
 (let (($x826 (= cell_2_1 4)))
 (let (($x8 (= cell_2_1 3)))
 (let (($x1370 (= cell_2_1 2)))
 (let (($x850 (= cell_2_1 1)))
 (or $x850 $x1370 $x8 $x826 $x23 $x736 $x1251 $x232 $x1048)))))))))))
(assert
 (let (($x373 (= cell_3_1 9)))
 (let (($x314 (= cell_3_1 8)))
 (let (($x1238 (= cell_3_1 7)))
 (let (($x1122 (= cell_3_1 6)))
 (let (($x181 (= cell_3_1 5)))
 (let (($x1106 (= cell_3_1 4)))
 (let (($x1120 (= cell_3_1 3)))
 (let (($x485 (= cell_3_1 2)))
 (let (($x828 (= cell_3_1 1)))
 (or $x828 $x485 $x1120 $x1106 $x181 $x1122 $x1238 $x314 $x373)))))))))))
(assert
 (let (($x665 (= cell_4_1 9)))
 (let (($x159 (= cell_4_1 8)))
 (let (($x512 (= cell_4_1 7)))
 (let (($x296 (= cell_4_1 6)))
 (let (($x376 (= cell_4_1 5)))
 (let (($x734 (= cell_4_1 4)))
 (let (($x537 (= cell_4_1 3)))
 (let (($x612 (= cell_4_1 2)))
 (let (($x315 (= cell_4_1 1)))
 (or $x315 $x612 $x537 $x734 $x376 $x296 $x512 $x159 $x665)))))))))))
(assert
 (let (($x1435 (= cell_5_1 9)))
 (let (($x294 (= cell_5_1 8)))
 (let (($x508 (= cell_5_1 7)))
 (let (($x1081 (= cell_5_1 6)))
 (let (($x156 (= cell_5_1 5)))
 (let (($x929 (= cell_5_1 4)))
 (let (($x238 (= cell_5_1 3)))
 (let (($x1263 (= cell_5_1 2)))
 (let (($x401 (= cell_5_1 1)))
 (or $x401 $x1263 $x238 $x929 $x156 $x1081 $x508 $x294 $x1435)))))))))))
(assert
 (let (($x976 (= cell_6_1 9)))
 (let (($x1211 (= cell_6_1 8)))
 (let (($x869 (= cell_6_1 7)))
 (let (($x1116 (= cell_6_1 6)))
 (let (($x1285 (= cell_6_1 5)))
 (let (($x1355 (= cell_6_1 4)))
 (let (($x791 (= cell_6_1 3)))
 (let (($x706 (= cell_6_1 2)))
 (let (($x1075 (= cell_6_1 1)))
 (or $x1075 $x706 $x791 $x1355 $x1285 $x1116 $x869 $x1211 $x976)))))))))))
(assert
 (let (($x925 (= cell_7_1 9)))
 (let (($x535 (= cell_7_1 8)))
 (let (($x154 (= cell_7_1 7)))
 (let (($x551 (= cell_7_1 6)))
 (let (($x693 (= cell_7_1 5)))
 (let (($x257 (= cell_7_1 4)))
 (let (($x492 (= cell_7_1 3)))
 (let (($x503 (= cell_7_1 2)))
 (let (($x864 (= cell_7_1 1)))
 (or $x864 $x503 $x492 $x257 $x693 $x551 $x154 $x535 $x925)))))))))))
(assert
 (let (($x1487 (= cell_8_1 9)))
 (let (($x543 (= cell_8_1 8)))
 (let (($x1345 (= cell_8_1 7)))
 (let (($x719 (= cell_8_1 6)))
 (let (($x531 (= cell_8_1 5)))
 (let (($x1206 (= cell_8_1 4)))
 (let (($x598 (= cell_8_1 3)))
 (let (($x80 (= cell_8_1 2)))
 (let (($x1480 (= cell_8_1 1)))
 (or $x1480 $x80 $x598 $x1206 $x531 $x719 $x1345 $x543 $x1487)))))))))))
(assert
 (let (($x581 (= cell_9_1 9)))
 (let (($x552 (= cell_9_1 8)))
 (let (($x544 (= cell_9_1 7)))
 (let (($x1333 (= cell_9_1 6)))
 (let (($x1006 (= cell_9_1 5)))
 (let (($x1188 (= cell_9_1 4)))
 (let (($x1522 (= cell_9_1 3)))
 (let (($x653 (= cell_9_1 2)))
 (let (($x915 (= cell_9_1 1)))
 (or $x915 $x653 $x1522 $x1188 $x1006 $x1333 $x544 $x552 $x581)))))))))))
(assert
 (let (($x932 (= cell_1_2 9)))
 (let (($x427 (= cell_1_2 8)))
 (let (($x442 (= cell_1_2 7)))
 (let (($x1027 (= cell_1_2 6)))
 (let (($x1168 (= cell_1_2 5)))
 (let (($x921 (= cell_1_2 4)))
 (let (($x1154 (= cell_1_2 3)))
 (let (($x177 (= cell_1_2 2)))
 (let (($x1050 (= cell_1_2 1)))
 (or $x1050 $x177 $x1154 $x921 $x1168 $x1027 $x442 $x427 $x932)))))))))))
(assert
 (let (($x771 (= cell_2_2 9)))
 (let (($x1507 (= cell_2_2 8)))
 (let (($x1159 (= cell_2_2 7)))
 (let (($x274 (= cell_2_2 6)))
 (let (($x554 (= cell_2_2 5)))
 (let (($x819 (= cell_2_2 4)))
 (let (($x413 (= cell_2_2 3)))
 (let (($x1503 (= cell_2_2 2)))
 (let (($x1046 (= cell_2_2 1)))
 (or $x1046 $x1503 $x413 $x819 $x554 $x274 $x1159 $x1507 $x771)))))))))))
(assert
 (let (($x1190 (= cell_3_2 9)))
 (let (($x409 (= cell_3_2 8)))
 (let (($x1016 (= cell_3_2 7)))
 (let (($x248 (= cell_3_2 6)))
 (let (($x905 (= cell_3_2 5)))
 (let (($x374 (= cell_3_2 4)))
 (let (($x908 (= cell_3_2 3)))
 (let (($x371 (= cell_3_2 2)))
 (let (($x673 (= cell_3_2 1)))
 (or $x673 $x371 $x908 $x374 $x905 $x248 $x1016 $x409 $x1190)))))))))))
(assert
 (let (($x489 (= cell_4_2 9)))
 (let (($x988 (= cell_4_2 8)))
 (let (($x1181 (= cell_4_2 7)))
 (let (($x304 (= cell_4_2 6)))
 (let (($x1092 (= cell_4_2 5)))
 (let (($x1201 (= cell_4_2 4)))
 (let (($x361 (= cell_4_2 3)))
 (let (($x81 (= cell_4_2 2)))
 (let (($x185 (= cell_4_2 1)))
 (or $x185 $x81 $x361 $x1201 $x1092 $x304 $x1181 $x988 $x489)))))))))))
(assert
 (let (($x599 (= cell_5_2 9)))
 (let (($x824 (= cell_5_2 8)))
 (let (($x720 (= cell_5_2 7)))
 (let (($x1288 (= cell_5_2 6)))
 (let (($x365 (= cell_5_2 5)))
 (let (($x513 (= cell_5_2 4)))
 (let (($x1416 (= cell_5_2 3)))
 (let (($x845 (= cell_5_2 2)))
 (let (($x1184 (= cell_5_2 1)))
 (or $x1184 $x845 $x1416 $x513 $x365 $x1288 $x720 $x824 $x599)))))))))))
(assert
 (let (($x334 (= cell_6_2 9)))
 (let (($x652 (= cell_6_2 8)))
 (let (($x825 (= cell_6_2 7)))
 (let (($x1152 (= cell_6_2 6)))
 (let (($x887 (= cell_6_2 5)))
 (let (($x1244 (= cell_6_2 4)))
 (let (($x192 (= cell_6_2 3)))
 (let (($x735 (= cell_6_2 2)))
 (let (($x472 (= cell_6_2 1)))
 (or $x472 $x735 $x192 $x1244 $x887 $x1152 $x825 $x652 $x334)))))))))))
(assert
 (let (($x482 (= cell_7_2 9)))
 (let (($x403 (= cell_7_2 8)))
 (let (($x1229 (= cell_7_2 7)))
 (let (($x1385 (= cell_7_2 6)))
 (let (($x1257 (= cell_7_2 5)))
 (let (($x1282 (= cell_7_2 4)))
 (let (($x641 (= cell_7_2 3)))
 (let (($x1153 (= cell_7_2 2)))
 (let (($x1069 (= cell_7_2 1)))
 (or $x1069 $x1153 $x641 $x1282 $x1257 $x1385 $x1229 $x403 $x482)))))))))))
(assert
 (let (($x604 (= cell_8_2 9)))
 (let (($x980 (= cell_8_2 8)))
 (let (($x204 (= cell_8_2 7)))
 (let (($x619 (= cell_8_2 6)))
 (let (($x288 (= cell_8_2 5)))
 (let (($x1077 (= cell_8_2 4)))
 (let (($x1422 (= cell_8_2 3)))
 (let (($x1313 (= cell_8_2 2)))
 (let (($x1107 (= cell_8_2 1)))
 (or $x1107 $x1313 $x1422 $x1077 $x288 $x619 $x204 $x980 $x604)))))))))))
(assert
 (let (($x986 (= cell_9_2 9)))
 (let (($x307 (= cell_9_2 8)))
 (let (($x636 (= cell_9_2 7)))
 (let (($x583 (= cell_9_2 6)))
 (let (($x1448 (= cell_9_2 5)))
 (let (($x1103 (= cell_9_2 4)))
 (let (($x437 (= cell_9_2 3)))
 (let (($x1356 (= cell_9_2 2)))
 (let (($x1033 (= cell_9_2 1)))
 (or $x1033 $x1356 $x437 $x1103 $x1448 $x583 $x636 $x307 $x986)))))))))))
(assert
 (let (($x467 (= cell_1_3 9)))
 (let (($x918 (= cell_1_3 8)))
 (let (($x127 (= cell_1_3 7)))
 (let (($x436 (= cell_1_3 6)))
 (let (($x487 (= cell_1_3 5)))
 (let (($x1079 (= cell_1_3 4)))
 (let (($x453 (= cell_1_3 3)))
 (let (($x748 (= cell_1_3 2)))
 (let (($x180 (= cell_1_3 1)))
 (or $x180 $x748 $x453 $x1079 $x487 $x436 $x127 $x918 $x467)))))))))))
(assert
 (let (($x1061 (= cell_2_3 9)))
 (let (($x1425 (= cell_2_3 8)))
 (let (($x635 (= cell_2_3 7)))
 (let (($x838 (= cell_2_3 6)))
 (let (($x128 (= cell_2_3 5)))
 (let (($x510 (= cell_2_3 4)))
 (let (($x435 (= cell_2_3 3)))
 (let (($x470 (= cell_2_3 2)))
 (let (($x1415 (= cell_2_3 1)))
 (or $x1415 $x470 $x435 $x510 $x128 $x838 $x635 $x1425 $x1061)))))))))))
(assert
 (let (($x892 (= cell_3_3 9)))
 (let (($x295 (= cell_3_3 8)))
 (let (($x1387 (= cell_3_3 7)))
 (let (($x586 (= cell_3_3 6)))
 (let (($x1024 (= cell_3_3 5)))
 (let (($x10 (= cell_3_3 4)))
 (let (($x261 (= cell_3_3 3)))
 (let (($x571 (= cell_3_3 2)))
 (let (($x247 (= cell_3_3 1)))
 (or $x247 $x571 $x261 $x10 $x1024 $x586 $x1387 $x295 $x892)))))))))))
(assert
 (let (($x475 (= cell_4_3 9)))
 (let (($x823 (= cell_4_3 8)))
 (let (($x663 (= cell_4_3 7)))
 (let (($x423 (= cell_4_3 6)))
 (let (($x638 (= cell_4_3 5)))
 (let (($x385 (= cell_4_3 4)))
 (let (($x1115 (= cell_4_3 3)))
 (let (($x1380 (= cell_4_3 2)))
 (let (($x781 (= cell_4_3 1)))
 (or $x781 $x1380 $x1115 $x385 $x638 $x423 $x663 $x823 $x475)))))))))))
(assert
 (let (($x777 (= cell_5_3 9)))
 (let (($x370 (= cell_5_3 8)))
 (let (($x1384 (= cell_5_3 7)))
 (let (($x306 (= cell_5_3 6)))
 (let (($x1546 (= cell_5_3 5)))
 (let (($x1501 (= cell_5_3 4)))
 (let (($x1065 (= cell_5_3 3)))
 (let (($x1020 (= cell_5_3 2)))
 (let (($x509 (= cell_5_3 1)))
 (or $x509 $x1020 $x1065 $x1501 $x1546 $x306 $x1384 $x370 $x777)))))))))))
(assert
 (let (($x340 (= cell_6_3 9)))
 (let (($x381 (= cell_6_3 8)))
 (let (($x731 (= cell_6_3 7)))
 (let (($x1259 (= cell_6_3 6)))
 (let (($x488 (= cell_6_3 5)))
 (let (($x1289 (= cell_6_3 4)))
 (let (($x766 (= cell_6_3 3)))
 (let (($x983 (= cell_6_3 2)))
 (let (($x860 (= cell_6_3 1)))
 (or $x860 $x983 $x766 $x1289 $x488 $x1259 $x731 $x381 $x340)))))))))))
(assert
 (let (($x745 (= cell_7_3 9)))
 (let (($x424 (= cell_7_3 8)))
 (let (($x978 (= cell_7_3 7)))
 (let (($x1405 (= cell_7_3 6)))
 (let (($x497 (= cell_7_3 5)))
 (let (($x756 (= cell_7_3 4)))
 (let (($x1523 (= cell_7_3 3)))
 (let (($x1342 (= cell_7_3 2)))
 (let (($x108 (= cell_7_3 1)))
 (or $x108 $x1342 $x1523 $x756 $x497 $x1405 $x978 $x424 $x745)))))))))))
(assert
 (let (($x1062 (= cell_8_3 9)))
 (let (($x924 (= cell_8_3 8)))
 (let (($x1515 (= cell_8_3 7)))
 (let (($x1139 (= cell_8_3 6)))
 (let (($x151 (= cell_8_3 5)))
 (let (($x405 (= cell_8_3 4)))
 (let (($x1261 (= cell_8_3 3)))
 (let (($x919 (= cell_8_3 2)))
 (let (($x235 (= cell_8_3 1)))
 (or $x235 $x919 $x1261 $x405 $x151 $x1139 $x1515 $x924 $x1062)))))))))))
(assert
 (let (($x265 (= cell_9_3 9)))
 (let (($x7 (= cell_9_3 8)))
 (let (($x757 (= cell_9_3 7)))
 (let (($x633 (= cell_9_3 6)))
 (let (($x1220 (= cell_9_3 5)))
 (let (($x758 (= cell_9_3 4)))
 (let (($x1450 (= cell_9_3 3)))
 (let (($x428 (= cell_9_3 2)))
 (let (($x1011 (= cell_9_3 1)))
 (or $x1011 $x428 $x1450 $x758 $x1220 $x633 $x757 $x7 $x265)))))))))))
(assert
 (let (($x402 (= cell_1_4 9)))
 (let (($x191 (= cell_1_4 8)))
 (let (($x1421 (= cell_1_4 7)))
 (let (($x792 (= cell_1_4 6)))
 (let (($x605 (= cell_1_4 5)))
 (let (($x460 (= cell_1_4 4)))
 (let (($x608 (= cell_1_4 3)))
 (let (($x276 (= cell_1_4 2)))
 (let (($x1040 (= cell_1_4 1)))
 (or $x1040 $x276 $x608 $x460 $x605 $x792 $x1421 $x191 $x402)))))))))))
(assert
 (let (($x138 (= cell_2_4 9)))
 (let (($x1275 (= cell_2_4 8)))
 (let (($x272 (= cell_2_4 7)))
 (let (($x804 (= cell_2_4 6)))
 (let (($x1086 (= cell_2_4 5)))
 (let (($x333 (= cell_2_4 4)))
 (let (($x787 (= cell_2_4 3)))
 (let (($x266 (= cell_2_4 2)))
 (let (($x1104 (= cell_2_4 1)))
 (or $x1104 $x266 $x787 $x333 $x1086 $x804 $x272 $x1275 $x138)))))))))))
(assert
 (let (($x600 (= cell_3_4 9)))
 (let (($x1102 (= cell_3_4 8)))
 (let (($x89 (= cell_3_4 7)))
 (let (($x111 (= cell_3_4 6)))
 (let (($x728 (= cell_3_4 5)))
 (let (($x420 (= cell_3_4 4)))
 (let (($x246 (= cell_3_4 3)))
 (let (($x169 (= cell_3_4 2)))
 (let (($x1037 (= cell_3_4 1)))
 (or $x1037 $x169 $x246 $x420 $x728 $x111 $x89 $x1102 $x600)))))))))))
(assert
 (let (($x997 (= cell_4_4 9)))
 (let (($x229 (= cell_4_4 8)))
 (let (($x675 (= cell_4_4 7)))
 (let (($x939 (= cell_4_4 6)))
 (let (($x1071 (= cell_4_4 5)))
 (let (($x1113 (= cell_4_4 4)))
 (let (($x857 (= cell_4_4 3)))
 (let (($x79 (= cell_4_4 2)))
 (let (($x724 (= cell_4_4 1)))
 (or $x724 $x79 $x857 $x1113 $x1071 $x939 $x675 $x229 $x997)))))))))))
(assert
 (let (($x562 (= cell_5_4 9)))
 (let (($x620 (= cell_5_4 8)))
 (let (($x995 (= cell_5_4 7)))
 (let (($x699 (= cell_5_4 6)))
 (let (($x1406 (= cell_5_4 5)))
 (let (($x1034 (= cell_5_4 4)))
 (let (($x1172 (= cell_5_4 3)))
 (let (($x107 (= cell_5_4 2)))
 (let (($x1445 (= cell_5_4 1)))
 (or $x1445 $x107 $x1172 $x1034 $x1406 $x699 $x995 $x620 $x562)))))))))))
(assert
 (let (($x259 (= cell_6_4 9)))
 (let (($x167 (= cell_6_4 8)))
 (let (($x1082 (= cell_6_4 7)))
 (let (($x1166 (= cell_6_4 6)))
 (let (($x669 (= cell_6_4 5)))
 (let (($x681 (= cell_6_4 4)))
 (let (($x139 (= cell_6_4 3)))
 (let (($x615 (= cell_6_4 2)))
 (let (($x1400 (= cell_6_4 1)))
 (or $x1400 $x615 $x139 $x681 $x669 $x1166 $x1082 $x167 $x259)))))))))))
(assert
 (let (($x981 (= cell_7_4 9)))
 (let (($x1462 (= cell_7_4 8)))
 (let (($x1094 (= cell_7_4 7)))
 (let (($x780 (= cell_7_4 6)))
 (let (($x917 (= cell_7_4 5)))
 (let (($x1066 (= cell_7_4 4)))
 (let (($x722 (= cell_7_4 3)))
 (let (($x578 (= cell_7_4 2)))
 (let (($x1303 (= cell_7_4 1)))
 (or $x1303 $x578 $x722 $x1066 $x917 $x780 $x1094 $x1462 $x981)))))))))))
(assert
 (let (($x754 (= cell_8_4 9)))
 (let (($x109 (= cell_8_4 8)))
 (let (($x678 (= cell_8_4 7)))
 (let (($x1383 (= cell_8_4 6)))
 (let (($x913 (= cell_8_4 5)))
 (let (($x1041 (= cell_8_4 4)))
 (let (($x1389 (= cell_8_4 3)))
 (let (($x1134 (= cell_8_4 2)))
 (let (($x742 (= cell_8_4 1)))
 (or $x742 $x1134 $x1389 $x1041 $x913 $x1383 $x678 $x109 $x754)))))))))))
(assert
 (let (($x1035 (= cell_9_4 9)))
 (let (($x78 (= cell_9_4 8)))
 (let (($x175 (= cell_9_4 7)))
 (let (($x95 (= cell_9_4 6)))
 (let (($x1171 (= cell_9_4 5)))
 (let (($x992 (= cell_9_4 4)))
 (let (($x602 (= cell_9_4 3)))
 (let (($x769 (= cell_9_4 2)))
 (let (($x443 (= cell_9_4 1)))
 (or $x443 $x769 $x602 $x992 $x1171 $x95 $x175 $x78 $x1035)))))))))))
(assert
 (let (($x249 (= cell_1_5 9)))
 (let (($x91 (= cell_1_5 8)))
 (let (($x1458 (= cell_1_5 7)))
 (let (($x313 (= cell_1_5 6)))
 (let (($x1325 (= cell_1_5 5)))
 (let (($x462 (= cell_1_5 4)))
 (let (($x1005 (= cell_1_5 3)))
 (let (($x1045 (= cell_1_5 2)))
 (let (($x1068 (= cell_1_5 1)))
 (or $x1068 $x1045 $x1005 $x462 $x1325 $x313 $x1458 $x91 $x249)))))))))))
(assert
 (let (($x468 (= cell_2_5 9)))
 (let (($x547 (= cell_2_5 8)))
 (let (($x697 (= cell_2_5 7)))
 (let (($x805 (= cell_2_5 6)))
 (let (($x422 (= cell_2_5 5)))
 (let (($x279 (= cell_2_5 4)))
 (let (($x469 (= cell_2_5 3)))
 (let (($x400 (= cell_2_5 2)))
 (let (($x790 (= cell_2_5 1)))
 (or $x790 $x400 $x469 $x279 $x422 $x805 $x697 $x547 $x468)))))))))))
(assert
 (let (($x1124 (= cell_3_5 9)))
 (let (($x559 (= cell_3_5 8)))
 (let (($x835 (= cell_3_5 7)))
 (let (($x267 (= cell_3_5 6)))
 (let (($x527 (= cell_3_5 5)))
 (let (($x909 (= cell_3_5 4)))
 (let (($x1143 (= cell_3_5 3)))
 (let (($x617 (= cell_3_5 2)))
 (let (($x920 (= cell_3_5 1)))
 (or $x920 $x617 $x1143 $x909 $x527 $x267 $x835 $x559 $x1124)))))))))))
(assert
 (let (($x674 (= cell_4_5 9)))
 (let (($x927 (= cell_4_5 8)))
 (let (($x1256 (= cell_4_5 7)))
 (let (($x1304 (= cell_4_5 6)))
 (let (($x237 (= cell_4_5 5)))
 (let (($x417 (= cell_4_5 4)))
 (let (($x486 (= cell_4_5 3)))
 (let (($x466 (= cell_4_5 2)))
 (let (($x1216 (= cell_4_5 1)))
 (or $x1216 $x466 $x486 $x417 $x237 $x1304 $x1256 $x927 $x674)))))))))))
(assert
 (let (($x993 (= cell_5_5 9)))
 (let (($x481 (= cell_5_5 8)))
 (let (($x1119 (= cell_5_5 7)))
 (let (($x1237 (= cell_5_5 6)))
 (let (($x713 (= cell_5_5 5)))
 (let (($x813 (= cell_5_5 4)))
 (let (($x934 (= cell_5_5 3)))
 (let (($x990 (= cell_5_5 2)))
 (let (($x1228 (= cell_5_5 1)))
 (or $x1228 $x990 $x934 $x813 $x713 $x1237 $x1119 $x481 $x993)))))))))))
(assert
 (let (($x323 (= cell_6_5 9)))
 (let (($x461 (= cell_6_5 8)))
 (let (($x377 (= cell_6_5 7)))
 (let (($x1151 (= cell_6_5 6)))
 (let (($x412 (= cell_6_5 5)))
 (let (($x877 (= cell_6_5 4)))
 (let (($x694 (= cell_6_5 3)))
 (let (($x1215 (= cell_6_5 2)))
 (let (($x464 (= cell_6_5 1)))
 (or $x464 $x1215 $x694 $x877 $x412 $x1151 $x377 $x461 $x323)))))))))))
(assert
 (let (($x1047 (= cell_7_5 9)))
 (let (($x441 (= cell_7_5 8)))
 (let (($x216 (= cell_7_5 7)))
 (let (($x152 (= cell_7_5 6)))
 (let (($x1097 (= cell_7_5 5)))
 (let (($x345 (= cell_7_5 4)))
 (let (($x491 (= cell_7_5 3)))
 (let (($x347 (= cell_7_5 2)))
 (let (($x378 (= cell_7_5 1)))
 (or $x378 $x347 $x491 $x345 $x1097 $x152 $x216 $x441 $x1047)))))))))))
(assert
 (let (($x344 (= cell_8_5 9)))
 (let (($x570 (= cell_8_5 8)))
 (let (($x710 (= cell_8_5 7)))
 (let (($x217 (= cell_8_5 6)))
 (let (($x490 (= cell_8_5 5)))
 (let (($x364 (= cell_8_5 4)))
 (let (($x1319 (= cell_8_5 3)))
 (let (($x1441 (= cell_8_5 2)))
 (let (($x622 (= cell_8_5 1)))
 (or $x622 $x1441 $x1319 $x364 $x490 $x217 $x710 $x570 $x344)))))))))))
(assert
 (let (($x760 (= cell_9_5 9)))
 (let (($x206 (= cell_9_5 8)))
 (let (($x709 (= cell_9_5 7)))
 (let (($x609 (= cell_9_5 6)))
 (let (($x1135 (= cell_9_5 5)))
 (let (($x447 (= cell_9_5 4)))
 (let (($x853 (= cell_9_5 3)))
 (let (($x1267 (= cell_9_5 2)))
 (let (($x1209 (= cell_9_5 1)))
 (or $x1209 $x1267 $x853 $x447 $x1135 $x609 $x709 $x206 $x760)))))))))))
(assert
 (let (($x271 (= cell_1_6 9)))
 (let (($x865 (= cell_1_6 8)))
 (let (($x1149 (= cell_1_6 7)))
 (let (($x1078 (= cell_1_6 6)))
 (let (($x827 (= cell_1_6 5)))
 (let (($x1012 (= cell_1_6 4)))
 (let (($x398 (= cell_1_6 3)))
 (let (($x1173 (= cell_1_6 2)))
 (let (($x431 (= cell_1_6 1)))
 (or $x431 $x1173 $x398 $x1012 $x827 $x1078 $x1149 $x865 $x271)))))))))))
(assert
 (let (($x522 (= cell_2_6 9)))
 (let (($x1316 (= cell_2_6 8)))
 (let (($x753 (= cell_2_6 7)))
 (let (($x1609 (= cell_2_6 6)))
 (let (($x1293 (= cell_2_6 5)))
 (let (($x1307 (= cell_2_6 4)))
 (let (($x999 (= cell_2_6 3)))
 (let (($x1478 (= cell_2_6 2)))
 (let (($x86 (= cell_2_6 1)))
 (or $x86 $x1478 $x999 $x1307 $x1293 $x1609 $x753 $x1316 $x522)))))))))))
(assert
 (let (($x316 (= cell_3_6 9)))
 (let (($x242 (= cell_3_6 8)))
 (let (($x1140 (= cell_3_6 7)))
 (let (($x901 (= cell_3_6 6)))
 (let (($x687 (= cell_3_6 5)))
 (let (($x367 (= cell_3_6 4)))
 (let (($x1087 (= cell_3_6 3)))
 (let (($x800 (= cell_3_6 2)))
 (let (($x573 (= cell_3_6 1)))
 (or $x573 $x800 $x1087 $x367 $x687 $x901 $x1140 $x242 $x316)))))))))))
(assert
 (let (($x99 (= cell_4_6 9)))
 (let (($x1213 (= cell_4_6 8)))
 (let (($x558 (= cell_4_6 7)))
 (let (($x330 (= cell_4_6 6)))
 (let (($x692 (= cell_4_6 5)))
 (let (($x430 (= cell_4_6 4)))
 (let (($x1039 (= cell_4_6 3)))
 (let (($x585 (= cell_4_6 2)))
 (let (($x298 (= cell_4_6 1)))
 (or $x298 $x585 $x1039 $x430 $x692 $x330 $x558 $x1213 $x99)))))))))))
(assert
 (let (($x1223 (= cell_5_6 9)))
 (let (($x1132 (= cell_5_6 8)))
 (let (($x1148 (= cell_5_6 7)))
 (let (($x494 (= cell_5_6 6)))
 (let (($x201 (= cell_5_6 5)))
 (let (($x1204 (= cell_5_6 4)))
 (let (($x445 (= cell_5_6 3)))
 (let (($x144 (= cell_5_6 2)))
 (let (($x187 (= cell_5_6 1)))
 (or $x187 $x144 $x445 $x1204 $x201 $x494 $x1148 $x1132 $x1223)))))))))))
(assert
 (let (($x1197 (= cell_6_6 9)))
 (let (($x891 (= cell_6_6 8)))
 (let (($x802 (= cell_6_6 7)))
 (let (($x737 (= cell_6_6 6)))
 (let (($x363 (= cell_6_6 5)))
 (let (($x1222 (= cell_6_6 4)))
 (let (($x773 (= cell_6_6 3)))
 (let (($x244 (= cell_6_6 2)))
 (let (($x582 (= cell_6_6 1)))
 (or $x582 $x244 $x773 $x1222 $x363 $x737 $x802 $x891 $x1197)))))))))))
(assert
 (let (($x618 (= cell_7_6 9)))
 (let (($x1505 (= cell_7_6 8)))
 (let (($x292 (= cell_7_6 7)))
 (let (($x885 (= cell_7_6 6)))
 (let (($x538 (= cell_7_6 5)))
 (let (($x253 (= cell_7_6 4)))
 (let (($x236 (= cell_7_6 3)))
 (let (($x613 (= cell_7_6 2)))
 (let (($x393 (= cell_7_6 1)))
 (or $x393 $x613 $x236 $x253 $x538 $x885 $x292 $x1505 $x618)))))))))))
(assert
 (let (($x348 (= cell_8_6 9)))
 (let (($x226 (= cell_8_6 8)))
 (let (($x623 (= cell_8_6 7)))
 (let (($x1118 (= cell_8_6 6)))
 (let (($x961 (= cell_8_6 5)))
 (let (($x672 (= cell_8_6 4)))
 (let (($x1301 (= cell_8_6 3)))
 (let (($x208 (= cell_8_6 2)))
 (let (($x350 (= cell_8_6 1)))
 (or $x350 $x208 $x1301 $x672 $x961 $x1118 $x623 $x226 $x348)))))))))))
(assert
 (let (($x335 (= cell_9_6 9)))
 (let (($x1170 (= cell_9_6 8)))
 (let (($x149 (= cell_9_6 7)))
 (let (($x1195 (= cell_9_6 6)))
 (let (($x967 (= cell_9_6 5)))
 (let (($x103 (= cell_9_6 4)))
 (let (($x293 (= cell_9_6 3)))
 (let (($x628 (= cell_9_6 2)))
 (let (($x1561 (= cell_9_6 1)))
 (or $x1561 $x628 $x293 $x103 $x967 $x1195 $x149 $x1170 $x335)))))))))))
(assert
 (let (($x258 (= cell_1_7 9)))
 (let (($x642 (= cell_1_7 8)))
 (let (($x1513 (= cell_1_7 7)))
 (let (($x1052 (= cell_1_7 6)))
 (let (($x1038 (= cell_1_7 5)))
 (let (($x935 (= cell_1_7 4)))
 (let (($x1492 (= cell_1_7 3)))
 (let (($x1203 (= cell_1_7 2)))
 (let (($x874 (= cell_1_7 1)))
 (or $x874 $x1203 $x1492 $x935 $x1038 $x1052 $x1513 $x642 $x258)))))))))))
(assert
 (let (($x320 (= cell_2_7 9)))
 (let (($x264 (= cell_2_7 8)))
 (let (($x949 (= cell_2_7 7)))
 (let (($x776 (= cell_2_7 6)))
 (let (($x631 (= cell_2_7 5)))
 (let (($x985 (= cell_2_7 4)))
 (let (($x375 (= cell_2_7 3)))
 (let (($x277 (= cell_2_7 2)))
 (let (($x526 (= cell_2_7 1)))
 (or $x526 $x277 $x375 $x985 $x631 $x776 $x949 $x264 $x320)))))))))))
(assert
 (let (($x1431 (= cell_3_7 9)))
 (let (($x998 (= cell_3_7 8)))
 (let (($x1007 (= cell_3_7 7)))
 (let (($x1524 (= cell_3_7 6)))
 (let (($x135 (= cell_3_7 5)))
 (let (($x1496 (= cell_3_7 4)))
 (let (($x352 (= cell_3_7 3)))
 (let (($x233 (= cell_3_7 2)))
 (let (($x406 (= cell_3_7 1)))
 (or $x406 $x233 $x352 $x1496 $x135 $x1524 $x1007 $x998 $x1431)))))))))))
(assert
 (let (($x1015 (= cell_4_7 9)))
 (let (($x1112 (= cell_4_7 8)))
 (let (($x970 (= cell_4_7 7)))
 (let (($x590 (= cell_4_7 6)))
 (let (($x1417 (= cell_4_7 5)))
 (let (($x994 (= cell_4_7 4)))
 (let (($x1208 (= cell_4_7 3)))
 (let (($x84 (= cell_4_7 2)))
 (let (($x1083 (= cell_4_7 1)))
 (or $x1083 $x84 $x1208 $x994 $x1417 $x590 $x970 $x1112 $x1015)))))))))))
(assert
 (let (($x726 (= cell_5_7 9)))
 (let (($x1254 (= cell_5_7 8)))
 (let (($x124 (= cell_5_7 7)))
 (let (($x317 (= cell_5_7 6)))
 (let (($x733 (= cell_5_7 5)))
 (let (($x1412 (= cell_5_7 4)))
 (let (($x1212 (= cell_5_7 3)))
 (let (($x866 (= cell_5_7 2)))
 (let (($x483 (= cell_5_7 1)))
 (or $x483 $x866 $x1212 $x1412 $x733 $x317 $x124 $x1254 $x726)))))))))))
(assert
 (let (($x243 (= cell_6_7 9)))
 (let (($x380 (= cell_6_7 8)))
 (let (($x1521 (= cell_6_7 7)))
 (let (($x946 (= cell_6_7 6)))
 (let (($x1290 (= cell_6_7 5)))
 (let (($x912 (= cell_6_7 4)))
 (let (($x953 (= cell_6_7 3)))
 (let (($x574 (= cell_6_7 2)))
 (let (($x801 (= cell_6_7 1)))
 (or $x801 $x574 $x953 $x912 $x1290 $x946 $x1521 $x380 $x243)))))))))))
(assert
 (let (($x1155 (= cell_7_7 9)))
 (let (($x328 (= cell_7_7 8)))
 (let (($x515 (= cell_7_7 7)))
 (let (($x898 (= cell_7_7 6)))
 (let (($x969 (= cell_7_7 5)))
 (let (($x902 (= cell_7_7 4)))
 (let (($x495 (= cell_7_7 3)))
 (let (($x695 (= cell_7_7 2)))
 (let (($x1510 (= cell_7_7 1)))
 (or $x1510 $x695 $x495 $x902 $x969 $x898 $x515 $x328 $x1155)))))))))))
(assert
 (let (($x701 (= cell_8_7 9)))
 (let (($x982 (= cell_8_7 8)))
 (let (($x682 (= cell_8_7 7)))
 (let (($x12 (= cell_8_7 6)))
 (let (($x966 (= cell_8_7 5)))
 (let (($x105 (= cell_8_7 4)))
 (let (($x1272 (= cell_8_7 3)))
 (let (($x660 (= cell_8_7 2)))
 (let (($x859 (= cell_8_7 1)))
 (or $x859 $x660 $x1272 $x105 $x966 $x12 $x682 $x982 $x701)))))))))))
(assert
 (let (($x610 (= cell_9_7 9)))
 (let (($x203 (= cell_9_7 8)))
 (let (($x260 (= cell_9_7 7)))
 (let (($x319 (= cell_9_7 6)))
 (let (($x454 (= cell_9_7 5)))
 (let (($x302 (= cell_9_7 4)))
 (let (($x987 (= cell_9_7 3)))
 (let (($x763 (= cell_9_7 2)))
 (let (($x779 (= cell_9_7 1)))
 (or $x779 $x763 $x987 $x302 $x454 $x319 $x260 $x203 $x610)))))))))))
(assert
 (let (($x643 (= cell_1_8 9)))
 (let (($x140 (= cell_1_8 8)))
 (let (($x973 (= cell_1_8 7)))
 (let (($x1518 (= cell_1_8 6)))
 (let (($x1084 (= cell_1_8 5)))
 (let (($x525 (= cell_1_8 4)))
 (let (($x1260 (= cell_1_8 3)))
 (let (($x143 (= cell_1_8 2)))
 (let (($x299 (= cell_1_8 1)))
 (or $x299 $x143 $x1260 $x525 $x1084 $x1518 $x973 $x140 $x643)))))))))))
(assert
 (let (($x168 (= cell_2_8 9)))
 (let (($x765 (= cell_2_8 8)))
 (let (($x563 (= cell_2_8 7)))
 (let (($x897 (= cell_2_8 6)))
 (let (($x1219 (= cell_2_8 5)))
 (let (($x408 (= cell_2_8 4)))
 (let (($x404 (= cell_2_8 3)))
 (let (($x1577 (= cell_2_8 2)))
 (let (($x382 (= cell_2_8 1)))
 (or $x382 $x1577 $x404 $x408 $x1219 $x897 $x563 $x765 $x168)))))))))))
(assert
 (let (($x1146 (= cell_3_8 9)))
 (let (($x696 (= cell_3_8 8)))
 (let (($x1329 (= cell_3_8 7)))
 (let (($x1101 (= cell_3_8 6)))
 (let (($x655 (= cell_3_8 5)))
 (let (($x1379 (= cell_3_8 4)))
 (let (($x410 (= cell_3_8 3)))
 (let (($x1136 (= cell_3_8 2)))
 (let (($x723 (= cell_3_8 1)))
 (or $x723 $x1136 $x410 $x1379 $x655 $x1101 $x1329 $x696 $x1146)))))))))))
(assert
 (let (($x194 (= cell_4_8 9)))
 (let (($x514 (= cell_4_8 8)))
 (let (($x540 (= cell_4_8 7)))
 (let (($x1506 (= cell_4_8 6)))
 (let (($x165 (= cell_4_8 5)))
 (let (($x1175 (= cell_4_8 4)))
 (let (($x991 (= cell_4_8 3)))
 (let (($x851 (= cell_4_8 2)))
 (let (($x1076 (= cell_4_8 1)))
 (or $x1076 $x851 $x991 $x1175 $x165 $x1506 $x540 $x514 $x194)))))))))))
(assert
 (let (($x928 (= cell_5_8 9)))
 (let (($x740 (= cell_5_8 8)))
 (let (($x1532 (= cell_5_8 7)))
 (let (($x542 (= cell_5_8 6)))
 (let (($x275 (= cell_5_8 5)))
 (let (($x220 (= cell_5_8 4)))
 (let (($x775 (= cell_5_8 3)))
 (let (($x283 (= cell_5_8 2)))
 (let (($x1247 (= cell_5_8 1)))
 (or $x1247 $x283 $x775 $x220 $x275 $x542 $x1532 $x740 $x928)))))))))))
(assert
 (let (($x1482 (= cell_6_8 9)))
 (let (($x179 (= cell_6_8 8)))
 (let (($x160 (= cell_6_8 7)))
 (let (($x230 (= cell_6_8 6)))
 (let (($x596 (= cell_6_8 5)))
 (let (($x1442 (= cell_6_8 4)))
 (let (($x387 (= cell_6_8 3)))
 (let (($x732 (= cell_6_8 2)))
 (let (($x848 (= cell_6_8 1)))
 (or $x848 $x732 $x387 $x1442 $x596 $x230 $x160 $x179 $x1482)))))))))))
(assert
 (let (($x539 (= cell_7_8 9)))
 (let (($x1264 (= cell_7_8 8)))
 (let (($x750 (= cell_7_8 7)))
 (let (($x1182 (= cell_7_8 6)))
 (let (($x890 (= cell_7_8 5)))
 (let (($x452 (= cell_7_8 4)))
 (let (($x627 (= cell_7_8 3)))
 (let (($x117 (= cell_7_8 2)))
 (let (($x1108 (= cell_7_8 1)))
 (or $x1108 $x117 $x627 $x452 $x890 $x1182 $x750 $x1264 $x539)))))))))))
(assert
 (let (($x1131 (= cell_8_8 9)))
 (let (($x565 (= cell_8_8 8)))
 (let (($x291 (= cell_8_8 7)))
 (let (($x446 (= cell_8_8 6)))
 (let (($x670 (= cell_8_8 5)))
 (let (($x1294 (= cell_8_8 4)))
 (let (($x941 (= cell_8_8 3)))
 (let (($x972 (= cell_8_8 2)))
 (let (($x1129 (= cell_8_8 1)))
 (or $x1129 $x972 $x941 $x1294 $x670 $x446 $x291 $x565 $x1131)))))))))))
(assert
 (let (($x830 (= cell_9_8 9)))
 (let (($x1070 (= cell_9_8 8)))
 (let (($x1239 (= cell_9_8 7)))
 (let (($x648 (= cell_9_8 6)))
 (let (($x691 (= cell_9_8 5)))
 (let (($x310 (= cell_9_8 4)))
 (let (($x549 (= cell_9_8 3)))
 (let (($x1454 (= cell_9_8 2)))
 (let (($x1008 (= cell_9_8 1)))
 (or $x1008 $x1454 $x549 $x310 $x691 $x648 $x1239 $x1070 $x830)))))))))))
(assert
 (let (($x440 (= cell_1_9 9)))
 (let (($x1026 (= cell_1_9 8)))
 (let (($x450 (= cell_1_9 7)))
 (let (($x480 (= cell_1_9 6)))
 (let (($x657 (= cell_1_9 5)))
 (let (($x433 (= cell_1_9 4)))
 (let (($x664 (= cell_1_9 3)))
 (let (($x465 (= cell_1_9 2)))
 (let (($x1401 (= cell_1_9 1)))
 (or $x1401 $x465 $x664 $x433 $x657 $x480 $x450 $x1026 $x440)))))))))))
(assert
 (let (($x572 (= cell_2_9 9)))
 (let (($x1309 (= cell_2_9 8)))
 (let (($x814 (= cell_2_9 7)))
 (let (($x668 (= cell_2_9 6)))
 (let (($x1456 (= cell_2_9 5)))
 (let (($x831 (= cell_2_9 4)))
 (let (($x273 (= cell_2_9 3)))
 (let (($x1158 (= cell_2_9 2)))
 (let (($x1502 (= cell_2_9 1)))
 (or $x1502 $x1158 $x273 $x831 $x1456 $x668 $x814 $x1309 $x572)))))))))))
(assert
 (let (($x1218 (= cell_3_9 9)))
 (let (($x493 (= cell_3_9 8)))
 (let (($x1049 (= cell_3_9 7)))
 (let (($x158 (= cell_3_9 6)))
 (let (($x397 (= cell_3_9 5)))
 (let (($x812 (= cell_3_9 4)))
 (let (($x1009 (= cell_3_9 3)))
 (let (($x115 (= cell_3_9 2)))
 (let (($x931 (= cell_3_9 1)))
 (or $x931 $x115 $x1009 $x812 $x397 $x158 $x1049 $x493 $x1218)))))))))))
(assert
 (let (($x502 (= cell_4_9 9)))
 (let (($x1511 (= cell_4_9 8)))
 (let (($x1196 (= cell_4_9 7)))
 (let (($x501 (= cell_4_9 6)))
 (let (($x429 (= cell_4_9 5)))
 (let (($x1214 (= cell_4_9 4)))
 (let (($x1447 (= cell_4_9 3)))
 (let (($x1001 (= cell_4_9 2)))
 (let (($x1509 (= cell_4_9 1)))
 (or $x1509 $x1001 $x1447 $x1214 $x429 $x501 $x1196 $x1511 $x502)))))))))))
(assert
 (let (($x395 (= cell_5_9 9)))
 (let (($x1486 (= cell_5_9 8)))
 (let (($x1498 (= cell_5_9 7)))
 (let (($x1194 (= cell_5_9 6)))
 (let (($x188 (= cell_5_9 5)))
 (let (($x700 (= cell_5_9 4)))
 (let (($x337 (= cell_5_9 3)))
 (let (($x305 (= cell_5_9 2)))
 (let (($x676 (= cell_5_9 1)))
 (or $x676 $x305 $x337 $x700 $x188 $x1194 $x1498 $x1486 $x395)))))))))))
(assert
 (let (($x1056 (= cell_6_9 9)))
 (let (($x1472 (= cell_6_9 8)))
 (let (($x847 (= cell_6_9 7)))
 (let (($x803 (= cell_6_9 6)))
 (let (($x820 (= cell_6_9 5)))
 (let (($x1287 (= cell_6_9 4)))
 (let (($x556 (= cell_6_9 3)))
 (let (($x1430 (= cell_6_9 2)))
 (let (($x968 (= cell_6_9 1)))
 (or $x968 $x1430 $x556 $x1287 $x820 $x803 $x847 $x1472 $x1056)))))))))))
(assert
 (let (($x896 (= cell_7_9 9)))
 (let (($x1455 (= cell_7_9 8)))
 (let (($x1144 (= cell_7_9 7)))
 (let (($x1534 (= cell_7_9 6)))
 (let (($x888 (= cell_7_9 5)))
 (let (($x1286 (= cell_7_9 4)))
 (let (($x984 (= cell_7_9 3)))
 (let (($x762 (= cell_7_9 2)))
 (let (($x171 (= cell_7_9 1)))
 (or $x171 $x762 $x984 $x1286 $x888 $x1534 $x1144 $x1455 $x896)))))))))))
(assert
 (let (($x137 (= cell_8_9 9)))
 (let (($x182 (= cell_8_9 8)))
 (let (($x1327 (= cell_8_9 7)))
 (let (($x210 (= cell_8_9 6)))
 (let (($x196 (= cell_8_9 5)))
 (let (($x355 (= cell_8_9 4)))
 (let (($x1224 (= cell_8_9 3)))
 (let (($x903 (= cell_8_9 2)))
 (let (($x1138 (= cell_8_9 1)))
 (or $x1138 $x903 $x1224 $x355 $x196 $x210 $x1327 $x182 $x137)))))))))))
(assert
 (let (($x383 (= cell_9_9 9)))
 (let (($x281 (= cell_9_9 8)))
 (let (($x856 (= cell_9_9 7)))
 (let (($x97 (= cell_9_9 6)))
 (let (($x677 (= cell_9_9 5)))
 (let (($x749 (= cell_9_9 4)))
 (let (($x959 (= cell_9_9 3)))
 (let (($x789 (= cell_9_9 2)))
 (let (($x414 (= cell_9_9 1)))
 (or $x414 $x789 $x959 $x749 $x677 $x97 $x856 $x281 $x383)))))))))))
(assert
 (and (distinct cell_1_1 cell_1_2 cell_1_3 cell_1_4 cell_1_5 cell_1_6 cell_1_7 cell_1_8 cell_1_9) true))
(assert
 (and (distinct cell_2_1 cell_2_2 cell_2_3 cell_2_4 cell_2_5 cell_2_6 cell_2_7 cell_2_8 cell_2_9) true))
(assert
 (and (distinct cell_3_1 cell_3_2 cell_3_3 cell_3_4 cell_3_5 cell_3_6 cell_3_7 cell_3_8 cell_3_9) true))
(assert
 (and (distinct cell_4_1 cell_4_2 cell_4_3 cell_4_4 cell_4_5 cell_4_6 cell_4_7 cell_4_8 cell_4_9) true))
(assert
 (and (distinct cell_5_1 cell_5_2 cell_5_3 cell_5_4 cell_5_5 cell_5_6 cell_5_7 cell_5_8 cell_5_9) true))
(assert
 (and (distinct cell_6_1 cell_6_2 cell_6_3 cell_6_4 cell_6_5 cell_6_6 cell_6_7 cell_6_8 cell_6_9) true))
(assert
 (and (distinct cell_7_1 cell_7_2 cell_7_3 cell_7_4 cell_7_5 cell_7_6 cell_7_7 cell_7_8 cell_7_9) true))
(assert
 (and (distinct cell_8_1 cell_8_2 cell_8_3 cell_8_4 cell_8_5 cell_8_6 cell_8_7 cell_8_8 cell_8_9) true))
(assert
 (and (distinct cell_9_1 cell_9_2 cell_9_3 cell_9_4 cell_9_5 cell_9_6 cell_9_7 cell_9_8 cell_9_9) true))
(assert
 (and (distinct cell_1_1 cell_2_1 cell_3_1 cell_4_1 cell_5_1 cell_6_1 cell_7_1 cell_8_1 cell_9_1) true))
(assert
 (and (distinct cell_1_2 cell_2_2 cell_3_2 cell_4_2 cell_5_2 cell_6_2 cell_7_2 cell_8_2 cell_9_2) true))
(assert
 (and (distinct cell_1_3 cell_2_3 cell_3_3 cell_4_3 cell_5_3 cell_6_3 cell_7_3 cell_8_3 cell_9_3) true))
(assert
 (and (distinct cell_1_4 cell_2_4 cell_3_4 cell_4_4 cell_5_4 cell_6_4 cell_7_4 cell_8_4 cell_9_4) true))
(assert
 (and (distinct cell_1_5 cell_2_5 cell_3_5 cell_4_5 cell_5_5 cell_6_5 cell_7_5 cell_8_5 cell_9_5) true))
(assert
 (and (distinct cell_1_6 cell_2_6 cell_3_6 cell_4_6 cell_5_6 cell_6_6 cell_7_6 cell_8_6 cell_9_6) true))
(assert
 (and (distinct cell_1_7 cell_2_7 cell_3_7 cell_4_7 cell_5_7 cell_6_7 cell_7_7 cell_8_7 cell_9_7) true))
(assert
 (and (distinct cell_1_8 cell_2_8 cell_3_8 cell_4_8 cell_5_8 cell_6_8 cell_7_8 cell_8_8 cell_9_8) true))
(assert
 (and (distinct cell_1_9 cell_2_9 cell_3_9 cell_4_9 cell_5_9 cell_6_9 cell_7_9 cell_8_9 cell_9_9) true))
(assert
 (and (distinct cell_1_1 cell_1_2 cell_1_3 cell_2_1 cell_2_2 cell_2_3 cell_3_1 cell_3_2 cell_3_3) true))
(assert
 (and (distinct cell_1_4 cell_1_5 cell_1_6 cell_2_4 cell_2_5 cell_2_6 cell_3_4 cell_3_5 cell_3_6) true))
(assert
 (and (distinct cell_1_7 cell_1_8 cell_1_9 cell_2_7 cell_2_8 cell_2_9 cell_3_7 cell_3_8 cell_3_9) true))
(assert
 (and (distinct cell_4_1 cell_4_2 cell_4_3 cell_5_1 cell_5_2 cell_5_3 cell_6_1 cell_6_2 cell_6_3) true))
(assert
 (and (distinct cell_4_4 cell_4_5 cell_4_6 cell_5_4 cell_5_5 cell_5_6 cell_6_4 cell_6_5 cell_6_6) true))
(assert
 (and (distinct cell_4_7 cell_4_8 cell_4_9 cell_5_7 cell_5_8 cell_5_9 cell_6_7 cell_6_8 cell_6_9) true))
(assert
 (and (distinct cell_7_1 cell_7_2 cell_7_3 cell_8_1 cell_8_2 cell_8_3 cell_9_1 cell_9_2 cell_9_3) true))
(assert
 (and (distinct cell_7_4 cell_7_5 cell_7_6 cell_8_4 cell_8_5 cell_8_6 cell_9_4 cell_9_5 cell_9_6) true))
(assert
 (and (distinct cell_7_7 cell_7_8 cell_7_9 cell_8_7 cell_8_8 cell_8_9 cell_9_7 cell_9_8 cell_9_9) true))
(assert
 (let (($x399 (and (distinct cell_5_9 cell_6_8 cell_7_7 cell_8_6) true)))
 (let (($x639 (and (distinct cell_2_9 cell_3_8 cell_4_7 cell_5_6 cell_6_5 cell_7_4 cell_8_3 cell_9_2) true)))
 (let (($x656 (and (distinct cell_1_8 cell_2_7 cell_3_6 cell_4_5 cell_5_4 cell_6_3 cell_7_2 cell_8_1) true)))
 (let (($x219 (and (distinct cell_1_5 cell_2_4 cell_3_3 cell_4_2) true)))
 (let (($x520 (and (distinct cell_5_1 cell_6_2 cell_7_3 cell_8_4) true)))
 (let (($x1367 (and (distinct cell_2_1 cell_3_2 cell_4_3 cell_5_4 cell_6_5 cell_7_6 cell_8_7 cell_9_8) true)))
 (let (($x1484 (and (distinct cell_1_2 cell_2_3 cell_3_4 cell_4_5 cell_5_6 cell_6_7 cell_7_8 cell_8_9) true)))
 (let (($x1570 (and (distinct cell_1_5 cell_2_6 cell_3_7 cell_4_8) true)))
 (and $x1570 $x1484 $x1367 $x520 $x219 $x656 $x639 $x399))))))))))
(assert
 (= cell_1_9 1))
(assert
 (= cell_2_1 1))
(assert
 (= cell_3_5 1))
(assert
 (= cell_4_7 1))
(assert
 (= cell_5_2 1))
(assert
 (= cell_6_6 1))
(assert
 (= cell_7_8 1))
(assert
 (= cell_8_4 1))
(assert
 (= cell_9_3 1))
(assert
 (= cell_1_2 2))
(assert
 (= cell_2_4 2))
(assert
 (= cell_3_7 2))
(assert
 (= cell_4_6 2))
(check-sat)

